NAME : oliver30
COMMENT : https://stevedower.id.au/research/oliver-30
TYPE : TSP
DIMENSION : 30
EDGE_WEIGHT_TYPE : EUC_2D
NODE_COORD_SECTION
1 54  67
3 54  62
4 37  84
5 41  94
6  2  99
7  7  64
8 25  62
9 22  60
10 18  54
11  4  50
12 13  40
13 18  40
14 24  42
15 25  38
16 44  35
17 41  26
18 45  21
19 58  35
20 62  32
21 82   7
22 91  38
23 83  46
25 71  44
24 64  60
26 68  58
27 83  69
28 87  76
29 74  78
30 71  71
2 58  69
